instances/p2/p2_6_20-3.dzn
Alphabet = {A,C,G,T};
ns = 6;
nc = 19;
neighbours = [| I(T),I(T),I(G),I(G),I(G),I(G),I(C),Null,Null,Null,Null,Null,Null,Null,Null,Null,Null,Null,Null | I(C),I(A),I(A),I(G),I(G),I(C),I(C),I(G),I(A),I(T),I(A),I(C),Null,Null,Null,Null,Null,Null,Null | I(C),I(A),I(A),I(C),I(G),I(C),I(G),I(A),I(T),I(A),I(G),I(C),I(A),Null,Null,Null,Null,Null,Null | I(G),I(C),I(T),I(T),I(G),I(G),I(A),I(A),I(T),I(G),I(G),I(T),I(A),I(T),I(C),I(C),I(T),I(A),I(T) | I(G),I(A),I(C),I(T),I(C),I(A),I(A),Null,Null,Null,Null,Null,Null,Null,Null,Null,Null,Null,Null | I(A),I(G),I(T),I(G),I(A),I(A),Null,Null,Null,Null,Null,Null,Null,Null,Null,Null,Null,Null,Null |];
